Cost: 1386
0-38-2-3-64-61-28-50-54-0
0-34-57-58-4-39-5-7-36-40-41-9-42-11-45-10-60-15-16-17-18-1-37-0
0-56-32-29-30-53-31-62-52-51-24-23-49-22-59-25-27-26-63-55-33-0
Cost: 1386
0-38-2-3-64-61-28-50-54-0
0-34-57-58-4-39-5-7-36-40-41-9-42-11-45-10-60-15-16-17-18-1-37-0
0-56-32-29-30-53-31-62-52-51-24-23-49-22-59-25-27-26-63-55-33-0
Cost: 1386
0-38-2-3-64-61-28-50-54-0
0-34-57-58-4-39-5-7-36-40-41-9-42-11-45-10-60-15-16-17-18-1-37-0
0-56-32-29-30-53-31-62-52-51-24-23-49-22-59-25-27-26-63-55-33-0
Cost: 1386
0-38-2-3-64-61-28-50-54-0
0-34-57-58-4-39-5-7-36-40-41-9-42-11-45-10-60-15-16-17-18-1-37-0
0-56-32-29-30-53-31-62-52-51-24-23-49-22-59-25-27-26-63-55-33-0
Cost: 1386
0-38-2-3-64-61-28-50-54-0
0-34-57-58-4-39-5-7-36-40-41-9-42-11-45-10-60-15-16-17-18-1-37-0
0-56-32-29-30-53-31-62-52-51-24-23-49-22-59-25-27-26-63-55-33-0
Cost: 1386
0-38-2-3-64-61-28-50-54-0
0-34-57-58-4-39-5-7-36-40-41-9-42-11-45-10-60-15-16-17-18-1-37-0
0-56-32-29-30-53-31-62-52-51-24-23-49-22-59-25-27-26-63-55-33-0
Cost: 1386
0-38-2-3-64-61-28-50-54-0
0-34-57-58-4-39-5-7-36-40-41-9-42-11-45-10-60-15-16-17-18-1-37-0
0-56-32-29-30-53-31-62-52-51-24-23-49-22-59-25-27-26-63-55-33-0
Cost: 1386
0-38-2-3-64-61-28-50-54-0
0-34-57-58-4-39-5-7-36-40-41-9-42-11-45-10-60-15-16-17-18-1-37-0
0-56-32-29-30-53-31-62-52-51-24-23-49-22-59-25-27-26-63-55-33-0
Cost: 1386
0-38-2-3-64-61-28-50-54-0
0-34-57-58-4-39-5-7-36-40-41-9-42-11-45-10-60-15-16-17-18-1-37-0
0-56-32-29-30-53-31-62-52-51-24-23-49-22-59-25-27-26-63-55-33-0
Cost: 1386
0-38-2-3-64-61-28-50-54-0
0-34-57-58-4-39-5-7-36-40-41-9-42-11-45-10-60-15-16-17-18-1-37-0
0-56-32-29-30-53-31-62-52-51-24-23-49-22-59-25-27-26-63-55-33-0
Cost: 1386
0-34-57-58-4-39-5-7-36-8-40-41-9-42-45-10-60-15-16-17-18-1-37-0
0-38-2-3-64-61-28-50-54-0
0-32-30-53-31-62-52-51-24-23-49-22-59-25-27-26-63-29-55-33-56-0
Cost: 1386
0-34-57-58-4-39-5-7-36-40-41-9-42-11-45-10-60-15-16-17-18-1-37-0
0-38-2-3-64-61-28-50-54-0
0-32-30-53-31-62-52-51-24-23-49-22-59-25-27-26-63-29-55-33-56-0
Cost: 1386
0-34-57-58-4-39-5-7-36-8-40-41-9-42-45-10-60-15-16-17-18-1-37-0
0-38-2-3-64-61-28-50-54-0
0-32-30-53-31-62-52-51-24-23-49-22-59-25-27-26-63-29-55-33-56-0
Cost: 1386
0-34-57-58-4-39-5-7-36-8-40-41-9-42-45-10-60-15-16-17-18-28-50-54-0
0-56-32-30-53-31-62-52-51-24-23-49-22-59-25-27-26-63-29-55-33-0
0-38-2-3-64-61-1-37-0
Cost: 1386
0-34-57-58-4-39-5-7-36-8-40-41-9-42-45-10-60-15-16-17-18-1-37-0
0-38-2-3-64-61-28-50-54-0
0-32-30-53-31-62-52-51-24-23-49-22-59-25-27-26-63-29-55-33-56-0
Cost: 1386
0-34-57-58-4-39-5-7-36-8-40-41-9-42-45-10-60-15-16-17-18-1-37-0
0-38-2-3-64-61-28-50-54-0
0-32-30-53-31-62-52-51-24-23-49-22-59-25-27-26-63-29-55-33-56-0
Cost: 1386
0-34-57-58-4-39-5-7-36-8-40-41-9-42-45-10-60-15-16-17-18-1-37-0
0-38-2-3-64-61-28-50-54-0
0-32-29-30-53-31-62-52-51-24-23-49-22-59-25-27-26-63-55-33-56-0
Cost: 1386
0-34-57-58-4-39-5-7-36-8-40-41-9-42-45-10-60-15-16-17-18-1-37-0
0-38-2-3-64-61-28-50-54-0
0-32-30-53-31-62-52-51-24-23-49-22-59-25-27-26-63-29-55-33-56-0
Cost: 1386
0-34-57-58-4-39-5-7-36-8-40-41-9-42-45-10-60-15-16-17-18-1-37-0
0-38-2-3-64-61-28-50-54-0
0-32-30-53-31-62-52-51-24-23-49-22-59-25-27-26-63-29-55-33-56-0
Cost: 1386
0-34-57-58-4-39-5-7-36-8-40-41-42-11-45-10-60-15-16-17-18-61-1-37-0
0-38-2-3-64-28-50-54-0
0-56-32-52-30-53-31-62-51-24-23-49-22-59-25-27-26-63-29-55-33-0
Cost: 1386
0-38-2-3-64-61-28-50-54-0
0-34-57-58-4-39-5-7-36-40-41-9-42-11-45-10-60-15-16-17-18-1-37-0
0-32-29-30-53-31-62-52-51-24-23-49-22-59-25-27-26-63-55-33-56-0
Cost: 1386
0-38-2-3-64-61-28-50-54-0
0-34-57-58-4-39-5-7-36-40-41-9-42-11-45-10-60-15-16-17-18-1-37-0
0-32-29-30-53-31-62-52-51-24-23-49-22-59-25-27-26-63-55-33-56-0
Cost: 1386
0-38-2-3-64-61-1-37-0
0-32-30-53-31-62-52-51-24-23-49-22-59-25-27-26-63-29-55-33-56-0
0-34-57-58-4-39-5-7-36-8-40-41-42-11-45-10-60-15-16-17-18-28-50-54-0
Cost: 1386
0-38-2-3-64-61-1-37-0
0-32-30-53-31-62-52-51-24-23-49-22-59-25-27-26-63-29-55-33-56-0
0-34-57-58-4-39-5-7-36-8-40-41-42-11-45-10-60-15-16-17-18-28-50-54-0
Cost: 1386
0-38-2-3-64-61-28-50-54-0
0-34-57-58-4-39-5-7-36-8-40-41-9-42-45-10-60-15-16-17-18-1-37-0
0-32-30-53-31-62-52-51-24-23-49-22-59-25-27-26-63-29-55-33-56-0
Cost: 1386
0-38-2-3-64-61-1-37-0
0-32-30-53-31-62-52-51-24-23-49-22-59-25-27-26-63-29-55-33-56-0
0-34-57-58-4-39-5-7-36-8-40-41-42-11-45-10-60-15-16-17-18-28-50-54-0
Cost: 1386
0-34-57-58-4-39-5-7-36-8-40-41-42-11-45-10-60-15-16-17-18-61-1-37-0
0-38-2-3-64-28-50-54-0
0-56-32-52-30-53-31-62-51-24-23-49-22-59-25-27-26-63-29-55-33-0
Cost: 1386
0-38-2-3-64-61-28-50-54-0
0-34-57-58-4-39-5-7-36-40-41-9-42-11-45-10-60-15-16-17-18-1-37-0
0-32-29-30-53-31-62-52-51-24-23-49-22-59-25-27-26-63-55-33-56-0
Cost: 1386
0-38-2-3-64-61-28-50-54-0
0-34-57-58-4-39-5-7-36-40-41-9-42-11-45-10-60-15-16-17-18-1-37-0
0-32-29-30-53-31-62-52-51-24-23-49-22-59-25-27-26-63-55-33-56-0
Cost: 1386
0-56-32-30-53-31-62-52-51-24-23-49-22-59-25-27-26-63-29-55-33-0
0-34-57-58-4-39-5-36-8-40-41-9-42-11-45-10-60-15-16-17-18-61-1-37-0
0-38-2-3-64-28-50-54-0
Cost: 1386
0-38-2-3-64-61-28-50-54-0
0-56-32-52-30-53-31-62-51-24-23-49-22-59-25-27-26-63-29-55-33-0
0-34-57-58-4-39-5-7-36-8-40-41-9-42-11-45-60-15-16-17-18-1-37-0
Cost: 1386
0-34-57-58-4-39-5-7-36-8-40-41-42-11-45-10-60-15-16-17-18-61-1-37-0
0-56-32-52-30-53-31-62-51-24-23-49-22-59-25-27-26-63-29-55-33-0
0-38-2-3-64-28-50-54-0
Cost: 1386
0-38-2-3-64-61-1-37-0
0-34-57-58-4-39-5-7-36-8-40-41-9-42-45-10-60-15-16-17-18-28-50-54-0
0-56-32-29-52-30-53-31-62-51-24-23-49-22-59-25-27-26-63-55-33-0
Cost: 1386
0-34-57-58-4-39-5-7-36-8-40-41-42-11-45-10-60-15-16-17-18-1-37-0
0-32-29-52-30-53-31-62-51-24-23-49-22-59-25-27-26-63-55-33-56-0
0-38-2-3-64-61-28-50-54-0
